7053.1 7053.1 7053.1 7053.1 7053.1 7053.1 7053.1 7053.1 7053.1 7053.1 7053.1 7053.1 7053.1 7053.1 7053.1 7053.1 7053.1 7053.1 7053.1 7053.1 7053.1 7053.1 7053.1 7053.1 7053.1 7053.1 7053.1 7053.1 7053.1 7053.1 7053.1 7053.1 7053.1 7053.1 7053.1 7053.1 7053.1 7053.1 7053.1 7053.1 7053.1 7053.1 7053.1 7053.1 7053.1 7053.1 7053.1 7053.1 7053.1 7053.1 7053.1 7053.1 7053.1 7053.1 7053.1 7053.1 7053.1 7053.1 7053.1 7053.1 7053.1 7053.1 7053.1 7053.1 7053.1 7053.1 7053.1 7053.1 7053.1 7053.1 7053.1 7053.1 7053.1 